p cnf 76 186
a 2 3 4 8 10 14 16 19 20 0
e 1 5 6 7 9 11 12 13 15 17 18 21 22 23 24 25 26 27 28 29 30 31 32 33 34 35 36 37 38 39 40 41 42 43 44 45 46 47 48 49 50 51 52 53 54 55 56 57 58 59 60 61 62 63 64 65 66 67 68 69 70 71 72 73 74 75 76 0
1 0
3 -5 0
4 -5 0
-3 -4 5 0
3 -6 0
-4 -6 0
-3 4 6 0
3 7 0
-5 7 0
-6 7 0
-3 5 6 -7 0
-8 9 0
8 9 0
9 -11 0
10 -11 0
-9 -10 11 0
9 -12 0
-10 -12 0
-9 10 12 0
-11 13 0
-12 13 0
11 12 -13 0
2 -15 0
7 -15 0
13 -15 0
14 -15 0
-2 -7 -13 -14 15 0
-2 -17 0
7 -17 0
13 -17 0
16 -17 0
2 -7 -13 -16 17 0
-15 18 0
-17 18 0
15 17 -18 0
-19 -21 0
20 -21 0
19 -20 21 0
-19 -22 0
-20 -22 0
19 20 22 0
-19 23 0
-21 23 0
-22 23 0
19 21 22 -23 0
18 -24 0
23 -24 0
-18 -23 24 0
9 -25 0
10 -25 0
-9 -10 25 0
9 -26 0
-10 -26 0
-9 10 26 0
-25 27 0
-26 27 0
25 26 -27 0
27 -28 0
19 -28 0
-27 -19 28 0
-21 29 0
-22 29 0
21 22 -29 0
27 -30 0
29 -30 0
-27 -29 30 0
-28 31 0
-30 31 0
28 30 -31 0
9 -32 0
10 -32 0
-9 -10 32 0
9 -33 0
-10 -33 0
-9 10 33 0
-32 34 0
-33 34 0
32 33 -34 0
34 -35 0
19 -35 0
-34 -19 35 0
34 -36 0
29 -36 0
-34 -29 36 0
-35 37 0
-36 37 0
35 36 -37 0
39 -41 0
40 -41 0
-39 -40 41 0
39 -42 0
-40 -42 0
-39 40 42 0
39 43 0
-41 43 0
-42 43 0
-39 41 42 -43 0
-44 45 0
44 45 0
45 -47 0
46 -47 0
-45 -46 47 0
45 -48 0
-46 -48 0
-45 46 48 0
-47 49 0
-48 49 0
47 48 -49 0
38 -51 0
43 -51 0
49 -51 0
50 -51 0
-38 -43 -49 -50 51 0
-38 -53 0
43 -53 0
49 -53 0
52 -53 0
38 -43 -49 -52 53 0
-51 54 0
-53 54 0
51 53 -54 0
-55 -57 0
56 -57 0
55 -56 57 0
-55 -58 0
-56 -58 0
55 56 58 0
-55 59 0
-57 59 0
-58 59 0
55 57 58 -59 0
54 -60 0
59 -60 0
-54 -59 60 0
45 -61 0
46 -61 0
-45 -46 61 0
45 -62 0
-46 -62 0
-45 46 62 0
-61 63 0
-62 63 0
61 62 -63 0
63 -64 0
55 -64 0
-63 -55 64 0
-57 65 0
-58 65 0
57 58 -65 0
63 -66 0
65 -66 0
-63 -65 66 0
-64 67 0
-66 67 0
64 66 -67 0
45 -68 0
46 -68 0
-45 -46 68 0
45 -69 0
-46 -69 0
-45 46 69 0
-68 70 0
-69 70 0
68 69 -70 0
70 -71 0
55 -71 0
-70 -55 71 0
70 -72 0
65 -72 0
-70 -65 72 0
-71 73 0
-72 73 0
71 72 -73 0
-67 -31 -74 0
67 31 -74 0
-67 31 74 0
67 -31 74 0
-73 -37 -75 0
73 37 -75 0
-73 37 75 0
73 -37 75 0
-74 -76 0
-75 -76 0
60 -76 0
74 75 -60 76 0
-24 76 0
